(set-info :source  loris-7.ddns.comp.nus.edu.sg/~project/hip/) 
;Variables declarations
(declare-fun v_node_472_2915_primed () Int)
(declare-fun l_14916 () Int)
(declare-fun cl_15950 () Int)
(declare-fun Anon_14918 () Int)
(declare-fun n_15949 () Int)
(declare-fun x () Int)
(declare-fun a () Int)
(declare-fun v_bool_395_3172_primed () Int)
(declare-fun bh () Int)
(declare-fun bhl_14919 () Int)
(declare-fun n () Int)
(declare-fun nl_14917 () Int)
(declare-fun cl () Int)
(declare-fun flted_13_14914 () Int)
(declare-fun v_bool_397_3171_primed () Int)
(declare-fun a_primed () Int)
(declare-fun v_14915 () Int)
(declare-fun v_bool_438_3170_primed () Int)
(declare-fun x_primed () Int)
(declare-fun Anon_14922 () Int)
(declare-fun bhr_14923 () Int)
(declare-fun nr_14921 () Int)
(declare-fun r_14920 () Int)
(declare-fun cl2_16008 () Int)
(declare-fun bh_15951 () Int)
(declare-fun flted_380_16007 () Int)
(declare-fun v_node_469_16009 () Int)
;Relations declarations
;Axioms assertions
;Antecedent
(assert (= v_node_472_2915_primed l_14916))
(assert (<= cl_15950 1))
(assert (<= 0 cl_15950))
(assert (<= 1 bh_15951))
(assert (<= 0 n_15949))
(assert (<= cl2_16008 1))
(assert (<= 0 cl2_16008))
(assert (= cl_15950 1))
(assert (= (+ flted_380_16007 1) n_15949))
(assert (<= Anon_14918 1))
(assert (<= 0 Anon_14918))
(assert (<= 1 bhl_14919))
(assert (<= 0 nl_14917))
(assert (= bh_15951 bhl_14919))
(assert (= cl_15950 Anon_14918))
(assert (= n_15949 nl_14917))
(assert (= x_primed x))
(assert (= a_primed a))
(assert (<= 0 cl))
(assert (<= cl 1))
(assert (> x_primed 0))
(assert (> v_bool_395_3172_primed 0))
(assert (= bh (+ bhl_14919 1)))
(assert (= bhl_14919 bhr_14923))
(assert (= n (+ (+ nr_14921 1) nl_14917)))
(assert (= cl 0))
(assert (= flted_13_14914 0))
(assert (not (= v_14915 a_primed)))
(assert (not (> v_bool_397_3171_primed 0)))
(assert (<= a_primed v_14915))
(assert (not (> v_bool_438_3170_primed 0)))
(assert (= x_primed 1))
(assert (or (and (and (and (= Anon_14922 0) (<= 2 bhr_14923)) (<= 1 nr_14921)) (> r_14920 0)) (or (and (and (and (< r_14920 1) (= nr_14921 0)) (= bhr_14923 1)) (= Anon_14922 0)) (and (and (and (= Anon_14922 1) (<= 1 bhr_14923)) (<= 1 nr_14921)) (> r_14920 0)))))
(assert (or (and (and (and (= cl2_16008 0) (<= 2 bh_15951)) (<= 1 flted_380_16007)) (> v_node_469_16009 0)) (or (and (and (and (< v_node_469_16009 1) (= flted_380_16007 0)) (= bh_15951 1)) (= cl2_16008 0)) (and (and (and (= cl2_16008 1) (<= 1 bh_15951)) (<= 1 flted_380_16007)) (> v_node_469_16009 0)))))
;Negation of Consequence
(assert (not false))
(check-sat)